qbf_easy_train/easy_677_UNSAT.qdimacs
p cnf 31 82
a 16 2 5 0
e 1 3 4 6 7 8 9 10 11 12 13 14 15 17 18 19 20 21 22 23 24 25 26 27 28 29 30 31 0
-1 2 -3 0
1 -2 -3 0
-1 -2 3 0
1 2 3 0
3 -4 0
-3 -4 0
6 -5 0
6 1 0
5 -1 -6 0
8 6 0
8 -7 0
-6 7 -8 0
11 9 0
11 10 0
-9 -10 -11 0
12 -6 0
12 9 0
6 -9 -12 0
-13 -11 0
-13 12 0
11 -12 13 0
-11 13 -14 0
11 -13 -14 0
-11 -13 14 0
11 13 14 0
-15 10 0
-15 -5 0
-10 5 15 0
16 -15 0
16 -10 0
15 10 -16 0
-17 -14 0
-17 -16 0
14 16 17 0
8 -17 -18 0
-8 17 -18 0
8 17 18 0
-8 -17 18 0
-19 6 0
-19 -9 0
-6 9 19 0
21 -19 0
21 20 0
19 -20 -21 0
1 11 -22 0
-1 -11 -22 0
1 -11 22 0
-1 11 22 0
-23 22 0
-23 -10 0
-22 10 23 0
25 5 0
25 24 0
-5 -24 -25 0
-26 -23 0
-26 -25 0
23 25 26 0
21 26 -27 0
-21 -26 -27 0
21 -26 27 0
-21 26 27 0
-18 -27 -28 0
18 27 -28 0
-18 27 28 0
18 -27 28 0
29 -4 0
29 -28 0
4 28 -29 0
30 -11 0
30 -6 0
11 6 -30 0
-31 29 0
-31 30 0
-29 -30 31 0
-12 -5 -11 -3 10 -7 0
-7 14 3 -6 26 16 2 0
-20 -10 23 31 6 -15 0
14 -4 -16 8 -10 -18 5 0
30 -24 -29 18 -6 5 0
30 -21 17 -28 7 18 19 0
2 -10 0
31 0
