sat_easy_train/easy_677_UNSAT.dimacs
p cnf 119 390
2 -3 -4 0
-2 3 -4 0
2 3 4 0
-2 -3 4 0
6 4 0
6 5 0
-4 -5 -6 0
-7 1 0
-7 6 0
-1 -6 7 0
-9 8 0
-9 -8 0
-12 10 0
-12 -11 0
-10 11 12 0
-13 -12 0
-13 -4 0
12 4 13 0
14 -9 0
14 13 0
9 -13 -14 0
16 -15 0
16 10 0
15 -10 -16 0
11 17 -18 0
-11 -17 -18 0
11 -17 18 0
-11 17 18 0
-19 16 0
-19 -18 0
-16 18 19 0
1 -19 -20 0
-1 19 -20 0
1 19 20 0
-1 -19 20 0
6 12 -21 0
-6 -12 -21 0
6 -12 21 0
-6 12 21 0
-4 -15 -22 0
4 15 -22 0
-4 15 22 0
4 -15 22 0
-23 -22 0
-23 -3 0
22 3 23 0
-24 21 0
-24 -23 0
-21 23 24 0
-20 24 -25 0
20 -24 -25 0
-20 -24 25 0
20 24 25 0
-28 -26 0
-28 27 0
26 -27 28 0
-29 3 0
-29 8 0
-3 -8 29 0
31 12 0
31 30 0
-12 -30 -31 0
32 29 0
32 -31 0
-29 31 -32 0
32 30 -33 0
-32 -30 -33 0
32 -30 33 0
-32 30 33 0
-34 -28 0
-34 33 0
28 -33 34 0
11 -34 -35 0
-11 34 -35 0
11 34 35 0
-11 -34 35 0
-36 -25 0
-36 35 0
25 -35 36 0
37 -14 0
37 36 0
14 -36 -37 0
38 17 -39 0
-38 -17 -39 0
38 -17 39 0
-38 17 39 0
10 22 -40 0
-10 -22 -40 0
10 -22 40 0
-10 22 40 0
-41 -38 0
-41 40 0
38 -40 41 0
42 -6 0
42 -41 0
6 41 -42 0
43 -39 0
43 -42 0
39 42 -43 0
-37 -43 -44 0
37 43 -44 0
-37 43 44 0
37 -43 44 0
45 7 0
45 44 0
-7 -44 -45 0
-32 -40 -46 0
32 40 -46 0
-32 40 46 0
32 -40 46 0
9 -46 -47 0
-9 46 -47 0
9 46 47 0
-9 -46 47 0
48 -15 0
48 47 0
15 -47 -48 0
41 -27 -49 0
-41 27 -49 0
41 27 49 0
-41 -27 49 0
50 48 0
50 -49 0
-48 49 -50 0
-51 -3 0
-51 18 0
3 -18 51 0
53 -51 0
53 -52 0
51 52 -53 0
-54 9 0
-54 -2 0
-9 2 54 0
-55 -53 0
-55 54 0
53 -54 55 0
56 -33 0
56 -10 0
33 10 -56 0
57 -27 0
57 9 0
27 -9 -57 0
-56 -57 -58 0
56 57 -58 0
-56 57 58 0
56 -57 58 0
-59 -55 0
-59 -58 0
55 58 59 0
-60 10 0
-60 2 0
-10 -2 60 0
-17 60 -61 0
17 -60 -61 0
-17 -60 61 0
17 60 61 0
17 61 -62 0
-17 -61 -62 0
17 -61 62 0
-17 61 62 0
63 -27 0
63 33 0
27 -33 -63 0
3 -63 -64 0
-3 63 -64 0
3 63 64 0
-3 -63 64 0
65 62 0
65 64 0
-62 -64 -65 0
66 59 0
66 65 0
-59 -65 -66 0
50 -66 -67 0
-50 66 -67 0
50 66 67 0
-50 -66 67 0
68 1 0
68 6 0
-1 -6 -68 0
69 -30 0
69 8 0
30 -8 -69 0
-68 -69 -70 0
68 69 -70 0
-68 69 70 0
68 -69 70 0
-71 15 0
-71 -17 0
-15 17 71 0
-72 -28 0
-72 71 0
28 -71 72 0
73 13 0
73 -72 0
-13 72 -73 0
74 -51 0
74 -72 0
51 72 -74 0
75 -74 0
75 -12 0
74 12 -75 0
-40 75 -76 0
40 -75 -76 0
-40 -75 76 0
40 75 76 0
77 -73 0
77 -76 0
73 76 -77 0
-78 -70 0
-78 -77 0
70 77 78 0
79 11 0
79 51 0
-11 -51 -79 0
-80 28 0
-80 26 0
-28 -26 80 0
81 3 0
81 29 0
-3 -29 -81 0
82 -80 0
82 -81 0
80 81 -82 0
83 82 0
83 -19 0
-82 19 -83 0
84 83 0
84 23 0
-83 -23 -84 0
85 -79 0
85 -84 0
79 84 -85 0
87 86 0
87 11 0
-86 -11 -87 0
-88 -87 0
-88 -10 0
87 10 88 0
89 88 0
89 -52 0
-88 52 -89 0
-90 11 0
-90 -10 0
-11 10 90 0
80 -52 -91 0
-80 52 -91 0
80 52 91 0
-80 -52 91 0
92 -51 0
92 -91 0
51 91 -92 0
-93 90 0
-93 -92 0
-90 92 93 0
-94 89 0
-94 -93 0
-89 93 94 0
85 -94 -95 0
-85 94 -95 0
85 94 95 0
-85 -94 95 0
96 -52 0
96 2 0
52 -2 -96 0
-95 96 -97 0
95 -96 -97 0
-95 -96 97 0
95 96 97 0
98 -78 0
98 97 0
78 -97 -98 0
15 -61 -99 0
-15 61 -99 0
15 61 99 0
-15 -61 99 0
-100 16 0
-100 4 0
-16 -4 100 0
-101 100 0
-101 -9 0
-100 9 101 0
102 99 0
102 101 0
-99 -101 -102 0
103 -27 0
103 46 0
27 -46 -103 0
3 -21 -104 0
-3 21 -104 0
3 21 104 0
-3 -21 104 0
105 -103 0
105 104 0
103 -104 -105 0
107 -106 0
107 -80 0
106 80 -107 0
108 105 0
108 -107 0
-105 107 -108 0
-102 108 -109 0
102 -108 -109 0
-102 -108 109 0
102 108 109 0
98 -109 -110 0
-98 109 -110 0
98 109 110 0
-98 -109 110 0
111 67 0
111 110 0
-67 -110 -111 0
112 -60 0
112 91 0
60 -91 -112 0
-113 6 0
-113 -112 0
-6 112 113 0
-114 -1 0
-114 -60 0
1 60 114 0
-113 114 -115 0
113 -114 -115 0
-113 -114 115 0
113 114 115 0
116 63 0
116 3 0
-63 -3 -116 0
117 115 0
117 -116 0
-115 116 -117 0
-118 -111 0
-118 -117 0
111 117 118 0
45 118 -119 0
-45 -118 -119 0
45 -118 119 0
-45 118 119 0
19 -26 -61 34 0
-25 -24 32 0
-103 -102 -81 0
-2 -75 0
65 -56 0
23 30 -13 12 0
-29 -119 -58 0
119 -46 -30 0
54 77 0
44 -23 0
-116 29 0
-76 38 31 -115 -74 -97 0
-84 111 82 74 4 0
-45 -8 -72 -26 -108 0
-16 -61 75 -8 2 0
-107 71 0
53 77 -108 0
89 95 19 0
40 42 34 0
85 -2 -74 76 0
-51 -80 0
-60 -77 -107 -13 82 0
-86 40 112 0
4 -1 -11 0
-64 26 0
-70 -110 -85 -87 116 0
67 -91 100 8 0
60 -107 47 -92 0
-31 109 20 -22 -69 35 0
-48 105 76 111 63 -88 0
-72 17 27 21 90 56 0
-12 -96 -45 11 0
-94 24 -10 0
-46 -65 -87 114 0
51 -23 25 -109 118 0
-42 -102 91 0
77 -91 -83 65 0
-57 114 0
67 -57 -42 86 -49 0
106 98 0
116 10 -45 0
-54 9 0
-30 -94 -118 50 82 87 0
-35 -2 -67 9 36 0
-1 42 40 -74 -84 0
34 -23 -13 -29 -118 0
-35 -25 65 116 71 0
118 -70 -14 0
34 -31 -94 -87 0
48 96 6 7 95 -97 0
-47 34 -22 -32 -24 0
119 0
